
Gurobi 11.0.1 (linux64, gurobi_cl) logging started Mon May 27 14:49:53 2024

Set parameter Username
Set parameter LogFile to value "gurobi.log"
Using license file /home/victor/gurobi.lic
Academic license - for non-commercial use only - expires 2025-05-12
